nServices=10;
nDrivers=10;
nBuses=10;
startTime=[192 129 68 76 13 58 79 25 67 116];
durationTime=[17 16 10 22 12 21 28 24 12 23];
durationDist=[37 30 52 39 29 50 47 43 49 28];
passangers=[4 7 15 11 3 4 6 3 6 19];
capacity=[19 24 13 25 18 21 15 14 17 27];
costTime=[7 9 7 7 9 7 10 6 10 7];
costDist=[6 2 4 3 3 3 4 5 4 5];
maxTime=[57 54 33 56 35 24 48 42 27 39];
costBM=[5 8 6 8 7 8 5 7 8 5];
costEM=[9 8 11 10 9 10 12 8 12 12];
BM=[20 16 20 20 19 15 10 15 20 18];
